sing20130414.00
TTAA  64001 48698
99008 23212 29004 00082 24649 25502 92767 24842 25021
85505 19822 24522 70148 08213 22520 50588 03710 14503
40761 15927 08526 30971 29748 08026 25099 39556 08521
20248 51157 05528 15428 66943 06030 10661 84534 07535
88999
77999=
=
TTDD  6400/ 48698
11966 84556 22924 83130 33906 81557 44891 81959 55875
80158 66861 79956 77815 75357 88791 72948 99771 73528
11755 741//
21212 11976 08029 22943 10526 33909 13521 44885 12531
55870 12044 66833 09519 77815 33505 88798 29519 99777
29520 11769 29021 22761 29019 33755 29518=
